361 366 367 368 
393 398 399 400 
417 422 423 424 
435 442 444 445 
451 458 460 461 
467 474 476 477 
482 489 491 492 
495 502 504 505 
509 516 518 519 
525 532 534 535 
546 551 553 554 
566 571 573 574 
587 592 594 595 
607 612 614 615 
625 630 632 633 
647 652 654 655 
667 672 674 675 
686 691 693 694 
708 713 715 716 
728 733 735 736 
746 751 753 754 
768 773 775 776 
788 793 795 796 
806 811 813 814 
828 833 835 836 
847 852 854 855 
866 871 873 874 
887 892 894 895 
908 913 915 916 
926 931 933 934 
947 952 954 955 
967 972 974 975 
986 991 993 994 
1008 1013 1015 1016 
1030 1035 1037 1038 
1050 1055 1057 1058 
1070 1075 1077 1078 
1089 1094 1096 1097 
1110 1115 1117 1118 
1130 1135 1137 1138 
1148 1153 1155 1156 
1166 1171 1173 1174 
1188 1193 1195 1196 
1218 1223 1225 1226 
1278 1283 1285 1286 
1338 1343 1345 1346 
1398 1403 1405 1406 
1462 1467 1469 1470 
